100 500 200 500 10 100
93 433
99 352
70 304
67 380
66 320
15 389
21 364
27 398
73 466
100 362
97 353
31 471
24 212
23 315
73 368
13 389
36 302
47 213
14 291
100 355
74 490
21 230
99 273
69 389
32 254
29 293
44 489
88 371
65 449
21 457
50 464
73 366
42 334
51 370
76 221
34 233
18 267
88 312
36 493
40 328
41 450
94 352
26 384
49 388
61 208
72 397
92 438
93 487
17 340
87 394
84 330
86 320
72 492
61 487
46 331
20 377
67 435
14 217
11 252
63 348
66 448
26 482
87 455
98 355
52 221
40 405
21 426
43 447
52 406
44 298
47 446
27 265
21 203
49 345
91 387
37 214
54 385
30 418
62 361
50 383
28 271
55 432
60 313
75 362
44 208
53 454
26 332
11 232
55 500
12 289
15 319
55 419
83 247
15 292
19 358
64 489
53 211
29 374
59 496
13 241
